clingo version 5.4.0
Reading from merger/Tarik/merge.lp ...
Solving...
Answer: 1
occurs(object(robot,1),action(move,(0,1)),1). occurs(object(robot,1),action(move,(0,1)),2). occurs(object(robot,1),action(move,(0,1)),6). occurs(object(robot,1),action(move,(-1,0)),7). occurs(object(robot,2),action(move,(0,-1)),1). occurs(object(robot,2),action(move,(-1,0)),2). occurs(object(robot,3),action(move,(0,1)),1). occurs(object(robot,3),action(move,(0,1)),2). occurs(object(robot,3),action(move,(0,1)),4). occurs(object(robot,3),action(move,(0,1)),5). occurs(object(robot,3),action(move,(-1,0)),7). occurs(object(robot,3),action(move,(-1,0)),8). occurs(object(robot,3),action(move,(-1,0)),9). occurs(object(robot,3),action(move,(-1,0)),10). occurs(object(robot,3),action(move,(-1,0)),11). occurs(object(robot,3),action(move,(-1,0)),12). occurs(object(robot,3),action(move,(-1,0)),13). occurs(object(robot,3),action(move,(-1,0)),14). occurs(object(robot,3),action(move,(-1,0)),15). occurs(object(robot,4),action(move,(0,-1)),1). occurs(object(robot,4),action(move,(0,-1)),2). occurs(object(robot,4),action(move,(1,0)),9). occurs(object(robot,5),action(move,(0,-1)),1). occurs(object(robot,5),action(move,(0,-1)),2). occurs(object(robot,5),action(move,(0,-1)),4). occurs(object(robot,5),action(move,(0,-1)),6). occurs(object(robot,5),action(move,(0,-1)),7). occurs(object(robot,5),action(move,(0,-1)),8). occurs(object(robot,5),action(move,(0,-1)),9). occurs(object(robot,5),action(move,(0,-1)),10). occurs(object(robot,5),action(move,(-1,0)),13). occurs(object(robot,5),action(move,(-1,0)),15). occurs(object(robot,6),action(move,(-1,0)),1). occurs(object(robot,6),action(move,(0,-1)),2). occurs(object(robot,5),action(move,(0,-1)),19). occurs(object(robot,5),action(move,(0,-1)),20). occurs(object(robot,5),action(move,(-1,0)),21). occurs(object(robot,5),action(move,(-1,0)),14). occurs(object(robot,5),action(move,(0,-1)),16). occurs(object(robot,5),action(move,(-1,0)),18). occurs(object(robot,5),action(move,(-1,0)),17). occurs(object(robot,5),action(move,(0,-1)),11). occurs(object(robot,5),action(move,(-1,0)),23). occurs(object(robot,1),action(move,(0,1)),8). occurs(object(robot,4),action(move,(0,-1)),4). occurs(object(robot,4),action(move,(1,0)),5). occurs(object(robot,4),action(move,(1,0)),6). occurs(object(robot,5),action(move,(-1,0)),3). occurs(object(robot,5),action(move,(0,-1)),12). occurs(object(robot,5),action(move,(1,0)),5). occurs(object(robot,3),action(move,(-1,0)),16). occurs(object(robot,1),action(move,(0,1)),5). occurs(object(robot,4),action(move,(-1,0)),3). occurs(object(robot,6),action(move,(-1,0)),4). occurs(object(robot,5),action(move,(-1,0)),22). occurs(object(robot,4),action(move,(0,-1)),7). occurs(object(robot,4),action(move,(1,0)),10). occurs(object(robot,1),action(move,(-1,0)),9). occurs(object(robot,1),action(move,(0,1)),11). occurs(object(robot,3),action(move,(0,1)),6). occurs(object(robot,1),action(move,(-1,0)),10). occurs(object(robot,1),action(move,(0,1)),12). occurs(object(robot,4),action(move,(0,-1)),8). occurs(object(robot,4),action(move,(1,0)),11).
Optimization: 8
Answer: 2
occurs(object(robot,1),action(move,(0,1)),1). occurs(object(robot,1),action(move,(0,1)),2). occurs(object(robot,1),action(move,(0,1)),6). occurs(object(robot,1),action(move,(-1,0)),7). occurs(object(robot,2),action(move,(0,-1)),1). occurs(object(robot,3),action(move,(0,1)),1). occurs(object(robot,3),action(move,(0,1)),2). occurs(object(robot,3),action(move,(0,1)),4). occurs(object(robot,3),action(move,(0,1)),5). occurs(object(robot,3),action(move,(-1,0)),7). occurs(object(robot,3),action(move,(-1,0)),8). occurs(object(robot,3),action(move,(-1,0)),9). occurs(object(robot,3),action(move,(-1,0)),10). occurs(object(robot,3),action(move,(-1,0)),11). occurs(object(robot,3),action(move,(-1,0)),12). occurs(object(robot,3),action(move,(-1,0)),13). occurs(object(robot,3),action(move,(-1,0)),14). occurs(object(robot,3),action(move,(-1,0)),15). occurs(object(robot,4),action(move,(0,-1)),1). occurs(object(robot,4),action(move,(0,-1)),2). occurs(object(robot,4),action(move,(1,0)),9). occurs(object(robot,5),action(move,(0,-1)),1). occurs(object(robot,5),action(move,(0,-1)),2). occurs(object(robot,5),action(move,(0,-1)),4). occurs(object(robot,5),action(move,(0,-1)),6). occurs(object(robot,5),action(move,(0,-1)),7). occurs(object(robot,5),action(move,(0,-1)),8). occurs(object(robot,5),action(move,(0,-1)),9). occurs(object(robot,5),action(move,(0,-1)),10). occurs(object(robot,5),action(move,(-1,0)),13). occurs(object(robot,5),action(move,(-1,0)),15). occurs(object(robot,6),action(move,(-1,0)),1). occurs(object(robot,5),action(move,(0,-1)),19). occurs(object(robot,5),action(move,(0,-1)),20). occurs(object(robot,5),action(move,(-1,0)),21). occurs(object(robot,5),action(move,(-1,0)),14). occurs(object(robot,5),action(move,(0,-1)),16). occurs(object(robot,5),action(move,(-1,0)),18). occurs(object(robot,5),action(move,(-1,0)),17). occurs(object(robot,5),action(move,(0,-1)),11). occurs(object(robot,5),action(move,(-1,0)),23). occurs(object(robot,1),action(move,(0,1)),8). occurs(object(robot,4),action(move,(0,-1)),4). occurs(object(robot,4),action(move,(1,0)),5). occurs(object(robot,4),action(move,(1,0)),6). occurs(object(robot,5),action(move,(-1,0)),3). occurs(object(robot,5),action(move,(0,-1)),12). occurs(object(robot,5),action(move,(1,0)),5). occurs(object(robot,3),action(move,(-1,0)),16). occurs(object(robot,1),action(move,(0,1)),5). occurs(object(robot,2),action(move,(-1,0)),4). occurs(object(robot,4),action(move,(-1,0)),3). occurs(object(robot,6),action(move,(-1,0)),2). occurs(object(robot,6),action(move,(0,-1)),5). occurs(object(robot,5),action(move,(-1,0)),22). occurs(object(robot,4),action(move,(0,-1)),7). occurs(object(robot,4),action(move,(1,0)),10). occurs(object(robot,1),action(move,(-1,0)),9). occurs(object(robot,1),action(move,(0,1)),11). occurs(object(robot,3),action(move,(0,1)),6). occurs(object(robot,1),action(move,(-1,0)),10). occurs(object(robot,1),action(move,(0,1)),12). occurs(object(robot,4),action(move,(0,-1)),8). occurs(object(robot,4),action(move,(1,0)),11).
Optimization: 7
Answer: 3
occurs(object(robot,1),action(move,(0,1)),1). occurs(object(robot,1),action(move,(0,1)),2). occurs(object(robot,1),action(move,(0,1)),6). occurs(object(robot,1),action(move,(-1,0)),7). occurs(object(robot,2),action(move,(0,-1)),1). occurs(object(robot,2),action(move,(-1,0)),2). occurs(object(robot,3),action(move,(0,1)),1). occurs(object(robot,3),action(move,(0,1)),2). occurs(object(robot,3),action(move,(0,1)),5). occurs(object(robot,3),action(move,(-1,0)),8). occurs(object(robot,3),action(move,(-1,0)),9). occurs(object(robot,3),action(move,(-1,0)),10). occurs(object(robot,3),action(move,(-1,0)),11). occurs(object(robot,3),action(move,(-1,0)),12). occurs(object(robot,3),action(move,(-1,0)),13). occurs(object(robot,3),action(move,(-1,0)),14). occurs(object(robot,3),action(move,(-1,0)),15). occurs(object(robot,4),action(move,(0,-1)),1). occurs(object(robot,4),action(move,(0,-1)),3). occurs(object(robot,4),action(move,(1,0)),9). occurs(object(robot,5),action(move,(0,-1)),1). occurs(object(robot,5),action(move,(0,-1)),2). occurs(object(robot,5),action(move,(0,-1)),4). occurs(object(robot,5),action(move,(0,-1)),6). occurs(object(robot,5),action(move,(0,-1)),7). occurs(object(robot,5),action(move,(0,-1)),8). occurs(object(robot,5),action(move,(0,-1)),9). occurs(object(robot,5),action(move,(0,-1)),10). occurs(object(robot,5),action(move,(-1,0)),13). occurs(object(robot,5),action(move,(-1,0)),15). occurs(object(robot,6),action(move,(-1,0)),1). occurs(object(robot,5),action(move,(0,-1)),19). occurs(object(robot,5),action(move,(0,-1)),20). occurs(object(robot,5),action(move,(-1,0)),21). occurs(object(robot,5),action(move,(-1,0)),14). occurs(object(robot,5),action(move,(0,-1)),16). occurs(object(robot,5),action(move,(-1,0)),18). occurs(object(robot,5),action(move,(-1,0)),17). occurs(object(robot,5),action(move,(0,-1)),11). occurs(object(robot,5),action(move,(-1,0)),23). occurs(object(robot,1),action(move,(0,1)),8). occurs(object(robot,4),action(move,(0,-1)),4). occurs(object(robot,4),action(move,(1,0)),5). occurs(object(robot,4),action(move,(1,0)),6). occurs(object(robot,5),action(move,(-1,0)),3). occurs(object(robot,5),action(move,(0,-1)),12). occurs(object(robot,5),action(move,(1,0)),5). occurs(object(robot,3),action(move,(-1,0)),16). occurs(object(robot,3),action(move,(-1,0)),17). occurs(object(robot,1),action(move,(0,1)),5). occurs(object(robot,2),action(move,(0,-1)),3). occurs(object(robot,2),action(move,(0,1)),5). occurs(object(robot,4),action(move,(-1,0)),2). occurs(object(robot,6),action(move,(-1,0)),2). occurs(object(robot,6),action(move,(0,-1)),5). occurs(object(robot,5),action(move,(-1,0)),22). occurs(object(robot,4),action(move,(0,-1)),7). occurs(object(robot,4),action(move,(1,0)),10). occurs(object(robot,1),action(move,(-1,0)),9). occurs(object(robot,1),action(move,(0,1)),11). occurs(object(robot,3),action(move,(0,1)),6). occurs(object(robot,1),action(move,(-1,0)),10). occurs(object(robot,1),action(move,(0,1)),12). occurs(object(robot,3),action(move,(0,1)),7). occurs(object(robot,4),action(move,(0,-1)),8). occurs(object(robot,4),action(move,(1,0)),11).
Optimization: 5
Answer: 4
occurs(object(robot,1),action(move,(0,1)),1). occurs(object(robot,1),action(move,(0,1)),2). occurs(object(robot,1),action(move,(0,1)),6). occurs(object(robot,1),action(move,(-1,0)),7). occurs(object(robot,2),action(move,(0,-1)),1). occurs(object(robot,3),action(move,(0,1)),1). occurs(object(robot,3),action(move,(0,1)),2). occurs(object(robot,3),action(move,(0,1)),5). occurs(object(robot,3),action(move,(-1,0)),8). occurs(object(robot,3),action(move,(-1,0)),9). occurs(object(robot,3),action(move,(-1,0)),10). occurs(object(robot,3),action(move,(-1,0)),11). occurs(object(robot,3),action(move,(-1,0)),12). occurs(object(robot,3),action(move,(-1,0)),13). occurs(object(robot,3),action(move,(-1,0)),14). occurs(object(robot,3),action(move,(-1,0)),15). occurs(object(robot,4),action(move,(0,-1)),1). occurs(object(robot,4),action(move,(0,-1)),3). occurs(object(robot,4),action(move,(1,0)),9). occurs(object(robot,5),action(move,(0,-1)),1). occurs(object(robot,5),action(move,(0,-1)),2). occurs(object(robot,5),action(move,(0,-1)),4). occurs(object(robot,5),action(move,(0,-1)),6). occurs(object(robot,5),action(move,(0,-1)),7). occurs(object(robot,5),action(move,(0,-1)),8). occurs(object(robot,5),action(move,(0,-1)),9). occurs(object(robot,5),action(move,(0,-1)),10). occurs(object(robot,5),action(move,(-1,0)),13). occurs(object(robot,5),action(move,(-1,0)),15). occurs(object(robot,6),action(move,(-1,0)),1). occurs(object(robot,6),action(move,(0,-1)),2). occurs(object(robot,5),action(move,(0,-1)),19). occurs(object(robot,5),action(move,(0,-1)),20). occurs(object(robot,5),action(move,(-1,0)),21). occurs(object(robot,5),action(move,(-1,0)),14). occurs(object(robot,5),action(move,(0,-1)),16). occurs(object(robot,5),action(move,(-1,0)),18). occurs(object(robot,5),action(move,(-1,0)),17). occurs(object(robot,5),action(move,(0,-1)),11). occurs(object(robot,5),action(move,(-1,0)),23). occurs(object(robot,1),action(move,(0,1)),8). occurs(object(robot,4),action(move,(0,-1)),4). occurs(object(robot,4),action(move,(1,0)),5). occurs(object(robot,4),action(move,(1,0)),6). occurs(object(robot,5),action(move,(-1,0)),3). occurs(object(robot,5),action(move,(0,-1)),12). occurs(object(robot,5),action(move,(1,0)),5). occurs(object(robot,3),action(move,(-1,0)),16). occurs(object(robot,3),action(move,(-1,0)),17). occurs(object(robot,1),action(move,(0,1)),5). occurs(object(robot,2),action(move,(-1,0)),5). occurs(object(robot,4),action(move,(-1,0)),2). occurs(object(robot,6),action(move,(-1,0)),5). occurs(object(robot,5),action(move,(-1,0)),22). occurs(object(robot,4),action(move,(0,-1)),7). occurs(object(robot,4),action(move,(1,0)),10). occurs(object(robot,1),action(move,(-1,0)),9). occurs(object(robot,1),action(move,(0,1)),11). occurs(object(robot,3),action(move,(0,1)),6). occurs(object(robot,1),action(move,(-1,0)),10). occurs(object(robot,1),action(move,(0,1)),12). occurs(object(robot,3),action(move,(0,1)),7). occurs(object(robot,4),action(move,(0,-1)),8). occurs(object(robot,4),action(move,(1,0)),11).
Optimization: 4
OPTIMUM FOUND

Models       : 4
  Optimum    : yes
Optimization : 4
Calls        : 1
Time         : 3.439s (Solving: 0.11s 1st Model: 0.07s Unsat: 0.01s)
CPU Time     : 3.433s
